certificates/rado_a7_c136_N21.cnf
c Rad2 upper bound instance: x1 + 7*x2 - x3 = 136, interval [1,21]
p cnf 21 120
1 5 20 0
-1 -5 -20 0
1 12 21 0
-1 -12 -21 0
2 6 20 0
-2 -6 -20 0
2 13 21 0
-2 -13 -21 0
3 7 20 0
-3 -7 -20 0
3 14 21 0
-3 -14 -21 0
1 4 19 0
-1 -4 -19 0
4 8 20 0
-4 -8 -20 0
4 15 21 0
-4 -15 -21 0
2 5 19 0
-2 -5 -19 0
5 9 20 0
-5 -9 -20 0
5 16 21 0
-5 -16 -21 0
3 6 19 0
-3 -6 -19 0
6 10 20 0
-6 -10 -20 0
6 17 21 0
-6 -17 -21 0
4 7 19 0
-4 -7 -19 0
7 11 20 0
-7 -11 -20 0
7 18 21 0
-7 -18 -21 0
5 8 19 0
-5 -8 -19 0
8 12 20 0
-8 -12 -20 0
8 19 21 0
-8 -19 -21 0
6 9 19 0
-6 -9 -19 0
9 13 20 0
-9 -13 -20 0
9 20 21 0
-9 -20 -21 0
7 10 19 0
-7 -10 -19 0
10 14 20 0
-10 -14 -20 0
10 21 0
-10 -21 0
1 11 18 0
-1 -11 -18 0
8 11 19 0
-8 -11 -19 0
11 15 20 0
-11 -15 -20 0
2 12 18 0
-2 -12 -18 0
9 12 19 0
-9 -12 -19 0
12 16 20 0
-12 -16 -20 0
3 13 18 0
-3 -13 -18 0
10 13 19 0
-10 -13 -19 0
13 17 20 0
-13 -17 -20 0
4 14 18 0
-4 -14 -18 0
11 14 19 0
-11 -14 -19 0
14 18 20 0
-14 -18 -20 0
5 15 18 0
-5 -15 -18 0
12 15 19 0
-12 -15 -19 0
15 19 20 0
-15 -19 -20 0
6 16 18 0
-6 -16 -18 0
13 16 19 0
-13 -16 -19 0
16 20 0
-16 -20 0
7 17 18 0
-7 -17 -18 0
14 17 19 0
-14 -17 -19 0
17 20 21 0
-17 -20 -21 0
1 17 18 0
-1 -17 -18 0
8 18 0
-8 -18 0
15 18 19 0
-15 -18 -19 0
2 17 19 0
-2 -17 -19 0
9 18 19 0
-9 -18 -19 0
16 19 0
-16 -19 0
3 17 20 0
-3 -17 -20 0
10 18 20 0
-10 -18 -20 0
17 19 20 0
-17 -19 -20 0
4 17 21 0
-4 -17 -21 0
11 18 21 0
-11 -18 -21 0
18 19 21 0
-18 -19 -21 0
