certificates/rado_a7_c136_N21.drat
-19 -21 0
d -8 -19 -21 0
-21 0
10 0
19 0
-16 0
-7 0
-13 0
20 0
5 0
18 0
2 0
-6 0
-14 0
0
